\ENCODING=ISO-8859-1
\Problem name: instances

Maximize
 obj:
Subject To
 c1: 191 x1 + 72 x2 + 973 x3 + 721 x4 + 987 x5 + 467 x6 + 439 x7 + 887 x8
     + 57 x9 + 153 x10 + 490 x11 + 345 x12 + 526 x13 + 329 x14 + 831 x15
     + 76 x16 + 268 x17 + 342 x18 + 989 x19 + 809 x20 + 512 x21 + 416 x22
     + 17 x23 + 573 x24 + 668 x25 + 613 x26 + 280 x27 + 217 x28 + 365 x29
     + 396 x30 + 405 x31 + 556 x32 + 467 x33 + 378 x34 + 277 x35 + 454 x36
     + 844 x37 + 715 x38 + 341 x39 + 901 x40 + 867 x41 + 830 x42 + 245 x43
     + 393 x44 + 159 x45 + 76 x46 + 468 x47 + 426 x48 + 417 x49 + 456 x50
     + 234 x51 + 929 x52 + 871 x53 + 251 x54 + 502 x55 + 539 x56 + 863 x57
     + 782 x58 + 755 x59 + 228 x60 + 178 x61 + 160 x62 + 783 x63 + 644 x64
     + 537 x65 + 60 x66 + 98 x67 + 380 x68 + 774 x69 + 439 x70 + 280 x71
     + 641 x72 + 268 x73 + 525 x74 + 33 x75 + 427 x76 + 600 x77 + 501 x78
     + 852 x79 + 17 x80 <= 18917
Bounds
 0 <= x1 <= 1
 0 <= x2 <= 1
 0 <= x3 <= 1
 0 <= x4 <= 1
 0 <= x5 <= 1
 0 <= x6 <= 1
 0 <= x7 <= 1
 0 <= x8 <= 1
 0 <= x9 <= 1
 0 <= x10 <= 1
 0 <= x11 <= 1
 0 <= x12 <= 1
 0 <= x13 <= 1
 0 <= x14 <= 1
 0 <= x15 <= 1
 0 <= x16 <= 1
 0 <= x17 <= 1
 0 <= x18 <= 1
 0 <= x19 <= 1
 0 <= x20 <= 1
 0 <= x21 <= 1
 0 <= x22 <= 1
 0 <= x23 <= 1
 0 <= x24 <= 1
 0 <= x25 <= 1
 0 <= x26 <= 1
 0 <= x27 <= 1
 0 <= x28 <= 1
 0 <= x29 <= 1
 0 <= x30 <= 1
 0 <= x31 <= 1
 0 <= x32 <= 1
 0 <= x33 <= 1
 0 <= x34 <= 1
 0 <= x35 <= 1
 0 <= x36 <= 1
 0 <= x37 <= 1
 0 <= x38 <= 1
 0 <= x39 <= 1
 0 <= x40 <= 1
 0 <= x41 <= 1
 0 <= x42 <= 1
 0 <= x43 <= 1
 0 <= x44 <= 1
 0 <= x45 <= 1
 0 <= x46 <= 1
 0 <= x47 <= 1
 0 <= x48 <= 1
 0 <= x49 <= 1
 0 <= x50 <= 1
 0 <= x51 <= 1
 0 <= x52 <= 1
 0 <= x53 <= 1
 0 <= x54 <= 1
 0 <= x55 <= 1
 0 <= x56 <= 1
 0 <= x57 <= 1
 0 <= x58 <= 1
 0 <= x59 <= 1
 0 <= x60 <= 1
 0 <= x61 <= 1
 0 <= x62 <= 1
 0 <= x63 <= 1
 0 <= x64 <= 1
 0 <= x65 <= 1
 0 <= x66 <= 1
 0 <= x67 <= 1
 0 <= x68 <= 1
 0 <= x69 <= 1
 0 <= x70 <= 1
 0 <= x71 <= 1
 0 <= x72 <= 1
 0 <= x73 <= 1
 0 <= x74 <= 1
 0 <= x75 <= 1
 0 <= x76 <= 1
 0 <= x77 <= 1
 0 <= x78 <= 1
 0 <= x79 <= 1
 0 <= x80 <= 1
Binaries
 x1  x2  x3  x4  x5  x6  x7  x8  x9  x10  x11  x12  x13  x14  x15  x16  x17 
 x18  x19  x20  x21  x22  x23  x24  x25  x26  x27  x28  x29  x30  x31  x32 
 x33  x34  x35  x36  x37  x38  x39  x40  x41  x42  x43  x44  x45  x46  x47 
 x48  x49  x50  x51  x52  x53  x54  x55  x56  x57  x58  x59  x60  x61  x62 
 x63  x64  x65  x66  x67  x68  x69  x70  x71  x72  x73  x74  x75  x76  x77 
 x78  x79  x80 
End
